Problem:    
Rows:       264
Columns:    89 (72 integer, 72 binary)
Non-zeros:  808
Status:     INTEGER OPTIMAL
Objective:  value = 25.791131 (MINimum)

   No.   Row name        Activity     Lower bound   Upper bound
------ ------------    ------------- ------------- -------------
     1 r.5                   525.791             0               
     2 r.6                  -495.825      -496.513               
     3 r.7                   25.7911             0               
     4 r.8                   10.8997      -491.015               
     5 r.9                   525.791             0               
     6 r.10                  -491.03      -495.205               
     7 r.11                  25.7911             0               
     8 r.12                  23.9623        -490.1               
     9 r.13                  525.791             0               
    10 r.14                 -476.038       -495.73               
    11 r.15                  25.7911             0               
    12 r.16                  23.9623      -486.079               
    13 r.17                  525.791             0               
    14 r.18                 -480.307      -497.832               
    15 r.19                  25.7911             0               
    16 r.20                  19.6926      -491.795               
    17 r.21                  525.791             0               
    18 r.22                   -489.1      -498.071               
    19 r.23                  25.7911             0               
    20 r.24                  10.8997      -492.693               
    21 r.25                  525.791             0               
    22 r.26                 -482.475      -493.375               
    23 r.27                  25.7911             0               
    24 r.28                  25.7911      -476.946               
    25 r.29                  525.791             0               
    26 r.30                 -474.209      -498.171               
    27 r.31                  25.7911             0               
    28 r.32                  25.7911      -495.203               
    29 r.33                  525.791             0               
    30 r.34                 -499.312      -499.312               
    31 r.35                  25.7911             0               
    32 r.36                   0.6879      -492.305               
    33 r.37                        1             1             = 
    34 r.38                        1             1             = 
    35 r.39                        1             1             = 
    36 r.40                        1             1             = 
    37 r.41                        1             1             = 
    38 r.42                        1             1             = 
    39 r.43                        1             1             = 
    40 r.44                        1             1             = 
    41 r.45                        1             1             = 
    42 r.46                        1             1             = 
    43 r.47                        1             1             = 
    44 r.48                        1             1             = 
    45 r.49                        1             1             = 
    46 r.50                        1             1             = 
    47 r.51                        1             1             = 
    48 r.52                        1             1             = 
    49 r.53                        2             2               
    50 r.54                       -2          -501               
    51 r.55                 -495.205      -495.205               
    52 r.56                      500             2               
    53 r.57                     -500          -501               
    54 r.58                  2061.06        -490.1               
    55 r.59                        2             2               
    56 r.60                       -2          -501               
    57 r.61                 -480.213       -495.73               
    58 r.62                      500             2               
    59 r.63                     -500          -501               
    60 r.64                  2061.06      -486.079               
    61 r.65                        2             2               
    62 r.66                       -2          -501               
    63 r.67                 -484.482      -497.832               
    64 r.68                      500             2               
    65 r.69                     -500          -501               
    66 r.70                  2056.79      -491.795               
    67 r.71                        2             2               
    68 r.72                       -2          -501               
    69 r.73                 -493.275      -498.071               
    70 r.74                      500             2               
    71 r.75                     -500          -501               
    72 r.76                     2048      -492.693               
    73 r.77                  -486.65      -493.375               
    74 r.78                  21.6161      -476.946               
    75 r.79                 -493.375      -493.375               
    76 r.80                  14.8914      -476.946               
    77 r.81                        2             2               
    78 r.82                       -2          -501               
    79 r.83                 -478.384      -498.171               
    80 r.84                      500             2               
    81 r.85                     -500          -501               
    82 r.86                  2062.89      -495.203               
    83 r.87                        0             0               
    84 r.88                  10.2118             0               
    85 r.89                        0             0               
    86 r.90                  10.2118             0               
    87 r.91                        2             2               
    88 r.92                       -2          -501               
    89 r.93                  495.205        3.4871               
    90 r.94                      500             2               
    91 r.95                     -500          -501               
    92 r.96                  2034.94       8.98467               
    93 r.97                        2             2               
    94 r.98                       -2          -501               
    95 r.99                 -485.008       -495.73               
    96 r.100                     500             2               
    97 r.101                    -500          -501               
    98 r.102                    2048      -486.079               
    99 r.103                       2             2               
   100 r.104                      -2          -501               
   101 r.105                -489.278      -497.832               
   102 r.106                     500             2               
   103 r.107                    -500          -501               
   104 r.108                 2043.73      -491.795               
   105 r.109                       2             2               
   106 r.110                      -2          -501               
   107 r.111                -498.071      -498.071               
   108 r.112                     500             2               
   109 r.113                    -500          -501               
   110 r.114                 2034.94      -492.693               
   111 r.115                       2             2               
   112 r.116                      -2          -501               
   113 r.117                -491.445      -493.375               
   114 r.118                     500             2               
   115 r.119                    -500          -501               
   116 r.120                 2049.83      -476.946               
   117 r.121                -483.179      -498.171               
   118 r.122                 16.8207      -495.203               
   119 r.123                -498.171      -498.171               
   120 r.124                 1.82879      -495.203               
   121 r.125                  3.4871             0               
   122 r.126                 23.2744             0               
   123 r.127                  3.4871             0               
   124 r.128                 23.2744             0               
   125 r.129                       2             2               
   126 r.130                      -2          -501               
   127 r.131                 480.213        3.4871               
   128 r.132                     500             2               
   129 r.133                    -500          -501               
   130 r.134                 2034.94       8.98467               
   131 r.135                       2             2               
   132 r.136                      -2          -501               
   133 r.137                 485.008       4.79542               
   134 r.138                     500             2               
   135 r.139                    -500          -501               
   136 r.140                    2048       9.89978               
   137 r.141                       0             0               
   138 r.142                  4.2697             0               
   139 r.143                       0             0               
   140 r.144                  4.2697             0               
   141 r.145                       2             2               
   142 r.146                      -2          -501               
   143 r.147                -13.0626      -498.071               
   144 r.148                     500             2               
   145 r.149                    -500          -501               
   146 r.150                 2034.94      -492.693               
   147 r.151                       2             2               
   148 r.152                      -2          -501               
   149 r.153                -6.43739      -493.375               
   150 r.154                     500             2               
   151 r.155                    -500          -501               
   152 r.156                 2049.83      -476.946               
   153 r.157                -498.171      -498.171               
   154 r.158                 1.82879      -495.203               
   155 r.159                -498.171      -498.171               
   156 r.160                 1.82879      -495.203               
   157 r.161                 19.0047             0               
   158 r.162                 23.2744             0               
   159 r.163                 19.0047             0               
   160 r.164                 23.2744             0               
   161 r.165                       2             2               
   162 r.166                      -2          -501               
   163 r.167                 484.482        3.4871               
   164 r.168                     500             2               
   165 r.169                    -500          -501               
   166 r.170                 2039.21       8.98467               
   167 r.171                       2             2               
   168 r.172                      -2          -501               
   169 r.173                 489.278       4.79542               
   170 r.174                     500             2               
   171 r.175                    -500          -501               
   172 r.176                 2052.27       9.89978               
   173 r.177                       2             2               
   174 r.178                      -2          -501               
   175 r.179                -8.79293      -498.071               
   176 r.180                     500             2               
   177 r.181                    -500          -501               
   178 r.182                 2039.21      -492.693               
   179 r.183                       2             2               
   180 r.184                      -2          -501               
   181 r.185                -2.16769      -493.375               
   182 r.186                     500             2               
   183 r.187                    -500          -501               
   184 r.188                  2054.1      -476.946               
   185 r.189                -493.902      -498.171               
   186 r.190                 6.09849      -495.203               
   187 r.191                -493.902      -498.171               
   188 r.192                 6.09849      -495.203               
   189 r.193                 16.8371             0               
   190 r.194                 19.0047             0               
   191 r.195                 16.8371             0               
   192 r.196                 19.0047             0               
   193 r.197                       2             2               
   194 r.198                      -2          -501               
   195 r.199                 493.275        3.4871               
   196 r.200                     500             2               
   197 r.201                    -500          -501               
   198 r.202                    2048       8.98467               
   199 r.203                       2             2               
   200 r.204                      -2          -501               
   201 r.205                 498.071       4.79542               
   202 r.206                     500             2               
   203 r.207                    -500          -501               
   204 r.208                 2061.06       9.89978               
   205 r.209                       2             2               
   206 r.210                      -2          -501               
   207 r.211                 13.0626        4.2697               
   208 r.212                     500             2               
   209 r.213                    -500          -501               
   210 r.214                 2061.06       13.9215               
   211 r.215                       2             2               
   212 r.216                      -2          -501               
   213 r.217                 8.79293       2.16769               
   214 r.218                     500             2               
   215 r.219                    -500          -501               
   216 r.220                 2056.79       8.20531               
   217 r.221                -493.375      -493.375               
   218 r.222                 14.8914      -476.946               
   219 r.223                -493.375      -493.375               
   220 r.224                 14.8914      -476.946               
   221 r.225                -485.109      -498.171               
   222 r.226                 14.8914      -495.203               
   223 r.227                -485.109      -498.171               
   224 r.228                 14.8914      -495.203               
   225 r.229                 8.28252             0               
   226 r.230                 10.2118             0               
   227 r.231                 8.28252             0               
   228 r.232                 10.2118             0               
   229 r.233                       2             2               
   230 r.234                      -2          -501               
   231 r.235                 491.445       4.79542               
   232 r.236                     500             2               
   233 r.237                    -500          -501               
   234 r.238                 2046.17       9.89978               
   235 r.239                       2             2               
   236 r.240                      -2          -501               
   237 r.241                 6.43739        4.2697               
   238 r.242                     500             2               
   239 r.243                    -500          -501               
   240 r.244                 2046.17       13.9215               
   241 r.245                       2             2               
   242 r.246                      -2          -501               
   243 r.247                 2.16769       2.16769               
   244 r.248                     500             2               
   245 r.249                    -500          -501               
   246 r.250                  2041.9       8.20531               
   247 r.251                       2             2               
   248 r.252                      -2          -501               
   249 r.253                -491.734      -498.171               
   250 r.254                     500             2               
   251 r.255                    -500          -501               
   252 r.256                    2048      -495.203               
   253 r.257                       2             2               
   254 r.258                      -2          -501               
   255 r.259                 478.384        3.4871               
   256 r.260                     500             2               
   257 r.261                    -500          -501               
   258 r.262                 2033.11       8.98467               
   259 r.263                       2             2               
   260 r.264                      -2          -501               
   261 r.265                 491.734       6.62524               
   262 r.266                     500             2               
   263 r.267                    -500          -501               
   264 r.268                    2048       23.0541               

   No. Column name       Activity     Lower bound   Upper bound
------ ------------    ------------- ------------- -------------
     1 tt                    25.7911             0               
     2 s_1_1        *              1             0             1 
     3 t_1_1                 21.6161             0               
     4 s_1_6        *              1             0             1 
     5 s_2_1        *              0             0             1 
     6 t_2_1                 14.8914             0               
     7 s_2_6        *              0             0             1 
     8 s_1_2        *              1             0             1 
     9 t_1_2                 16.8207             0               
    10 s_1_7        *              1             0             1 
    11 s_2_2        *              0             0             1 
    12 t_2_2                 1.82879             0               
    13 s_2_7        *              0             0             1 
    14 s_1_3        *              1             0             1 
    15 t_1_3                 1.82879             0               
    16 s_2_3        *              0             0             1 
    17 t_2_3                 1.82879             0               
    18 s_1_4        *              1             0             1 
    19 t_1_4                 6.09849             0               
    20 s_2_4        *              0             0             1 
    21 t_2_4                 6.09849             0               
    22 s_1_5        *              1             0             1 
    23 t_1_5                 14.8914             0               
    24 s_2_5        *              0             0             1 
    25 t_2_5                 14.8914             0               
    26 t_1_6                 8.26618             0               
    27 t_2_6                       0             0               
    28 t_1_7                       0             0               
    29 t_2_7                       0             0               
    30 s_1_8        *              1             0             1 
    31 t_1_8                 25.1032             0               
    32 s_2_8        *              0             0             1 
    33 t_2_8                 25.1032             0               
    34 r_1_1_2      *              0             0             1 
    35 u_1_1_2      *              1             0             1 
    36 r_2_1_2      *              1             0             1 
    37 u_2_1_2      *              0             0             1 
    38 r_1_1_3      *              0             0             1 
    39 u_1_1_3      *              1             0             1 
    40 r_2_1_3      *              1             0             1 
    41 u_2_1_3      *              0             0             1 
    42 r_1_1_4      *              0             0             1 
    43 u_1_1_4      *              1             0             1 
    44 r_2_1_4      *              1             0             1 
    45 u_2_1_4      *              0             0             1 
    46 r_1_1_5      *              0             0             1 
    47 u_1_1_5      *              1             0             1 
    48 r_2_1_5      *              1             0             1 
    49 u_2_1_5      *              0             0             1 
    50 r_1_1_7      *              0             0             1 
    51 u_1_1_7      *              1             0             1 
    52 r_2_1_7      *              1             0             1 
    53 u_2_1_7      *              0             0             1 
    54 r_1_2_3      *              0             0             1 
    55 u_1_2_3      *              1             0             1 
    56 r_2_2_3      *              1             0             1 
    57 u_2_2_3      *              0             0             1 
    58 r_1_2_4      *              0             0             1 
    59 u_1_2_4      *              1             0             1 
    60 r_2_2_4      *              1             0             1 
    61 u_2_2_4      *              0             0             1 
    62 r_1_2_5      *              0             0             1 
    63 u_1_2_5      *              1             0             1 
    64 r_2_2_5      *              1             0             1 
    65 u_2_2_5      *              0             0             1 
    66 r_1_2_6      *              0             0             1 
    67 u_1_2_6      *              1             0             1 
    68 r_2_2_6      *              1             0             1 
    69 u_2_2_6      *              0             0             1 
    70 r_1_3_5      *              0             0             1 
    71 u_1_3_5      *              0             0             1 
    72 r_2_3_5      *              1             0             1 
    73 u_2_3_5      *              0             0             1 
    74 r_1_3_6      *              0             0             1 
    75 u_1_3_6      *              0             0             1 
    76 r_2_3_6      *              1             0             1 
    77 u_2_3_6      *              0             0             1 
    78 r_1_4_5      *              0             0             1 
    79 u_1_4_5      *              0             0             1 
    80 r_2_4_5      *              1             0             1 
    81 u_2_4_5      *              0             0             1 
    82 r_1_4_6      *              0             0             1 
    83 u_1_4_6      *              0             0             1 
    84 r_2_4_6      *              1             0             1 
    85 u_2_4_6      *              0             0             1 
    86 r_1_6_7      *              0             0             1 
    87 u_1_6_7      *              1             0             1 
    88 r_2_6_7      *              1             0             1 
    89 u_2_6_7      *              0             0             1 

Integer feasibility conditions:

KKT.PE: max.abs.err = 4.55e-13 on row 104
        max.rel.err = 1.11e-16 on row 104
        High quality

KKT.PB: max.abs.err = 0.00e+00 on row 0
        max.rel.err = 0.00e+00 on row 0
        High quality

End of output
